(set-logic ALL)
(declare-const n_VAR Int)
(assert (not (not (= n_VAR n_VAR))))
(assert (not (< n_VAR 0)))
(assert (< 1 (+ n_VAR 1)))
(assert (< 2 (+ n_VAR 1)))
(assert (< 3 (+ n_VAR 1)))
(assert (< 4 (+ n_VAR 1)))
(assert (< 5 (+ n_VAR 1)))
(assert (< 6 (+ n_VAR 1)))
(assert (< 7 (+ n_VAR 1)))
(assert (< 8 (+ n_VAR 1)))
(assert (< 9 (+ n_VAR 1)))
(assert (< 10 (+ n_VAR 1)))
(assert (< 11 (+ n_VAR 1)))
(assert (< 12 (+ n_VAR 1)))
(assert (< 13 (+ n_VAR 1)))
(assert (< 14 (+ n_VAR 1)))
(assert (< 15 (+ n_VAR 1)))
(assert (< 16 (+ n_VAR 1)))
(assert (< 17 (+ n_VAR 1)))
(assert (< 18 (+ n_VAR 1)))
(assert (< 19 (+ n_VAR 1)))
(assert (< 20 (+ n_VAR 1)))
(assert (< 21 (+ n_VAR 1)))
(assert (< 22 (+ n_VAR 1)))
(assert (< 23 (+ n_VAR 1)))
(assert (< 24 (+ n_VAR 1)))
(assert (< 25 (+ n_VAR 1)))
(assert (< 26 (+ n_VAR 1)))
(assert (< 27 (+ n_VAR 1)))
(assert (< 28 (+ n_VAR 1)))
(assert (< 29 (+ n_VAR 1)))
(assert (< 30 (+ n_VAR 1)))
(assert (< 31 (+ n_VAR 1)))
(assert (< 32 (+ n_VAR 1)))
(assert (< 33 (+ n_VAR 1)))
(assert (< 34 (+ n_VAR 1)))
(assert (< 35 (+ n_VAR 1)))
(assert (< 36 (+ n_VAR 1)))
(assert (< 37 (+ n_VAR 1)))
(assert (< 38 (+ n_VAR 1)))
(assert (< 39 (+ n_VAR 1)))
(assert (< 40 (+ n_VAR 1)))
(assert (< 41 (+ n_VAR 1)))
(assert (< 42 (+ n_VAR 1)))
(assert (< 43 (+ n_VAR 1)))
(assert (< 44 (+ n_VAR 1)))
(assert (< 45 (+ n_VAR 1)))
(assert (< 46 (+ n_VAR 1)))
(assert (< 47 (+ n_VAR 1)))
(assert (< 48 (+ n_VAR 1)))
(assert (< 49 (+ n_VAR 1)))
(assert (< 50 (+ n_VAR 1)))
(assert (< 51 (+ n_VAR 1)))
(assert (< 52 (+ n_VAR 1)))
(assert (< 53 (+ n_VAR 1)))
(assert (< 54 (+ n_VAR 1)))
(assert (< 55 (+ n_VAR 1)))
(assert (< 56 (+ n_VAR 1)))
(assert (< 57 (+ n_VAR 1)))
(assert (< 58 (+ n_VAR 1)))
(assert (< 59 (+ n_VAR 1)))
(assert (< 60 (+ n_VAR 1)))
(assert (< 61 (+ n_VAR 1)))
(assert (< 62 (+ n_VAR 1)))
(assert (< 63 (+ n_VAR 1)))
(assert (< 64 (+ n_VAR 1)))
(assert (< 65 (+ n_VAR 1)))
(assert (< 66 (+ n_VAR 1)))
(assert (< 67 (+ n_VAR 1)))
(assert (< 68 (+ n_VAR 1)))
(assert (< 69 (+ n_VAR 1)))
(assert (< 70 (+ n_VAR 1)))
(assert (< 71 (+ n_VAR 1)))
(assert (< 72 (+ n_VAR 1)))
(assert (< 73 (+ n_VAR 1)))
(assert (< 74 (+ n_VAR 1)))
(assert (< 75 (+ n_VAR 1)))
(assert (< 76 (+ n_VAR 1)))
(assert (< 77 (+ n_VAR 1)))
(assert (< 78 (+ n_VAR 1)))
(assert (< 79 (+ n_VAR 1)))
(assert (< 80 (+ n_VAR 1)))
(assert (< 81 (+ n_VAR 1)))
(assert (< 82 (+ n_VAR 1)))
(assert (< 83 (+ n_VAR 1)))
(assert (< 84 (+ n_VAR 1)))
(assert (< 85 (+ n_VAR 1)))
(assert (< 86 (+ n_VAR 1)))
(assert (< 87 (+ n_VAR 1)))
(assert (< 88 (+ n_VAR 1)))
(assert (< 89 (+ n_VAR 1)))
(assert (< 90 (+ n_VAR 1)))
(assert (< 91 (+ n_VAR 1)))
(assert (< 92 (+ n_VAR 1)))
(assert (< 93 (+ n_VAR 1)))
(assert (< 94 (+ n_VAR 1)))
(assert (< 95 (+ n_VAR 1)))
(assert (< 96 (+ n_VAR 1)))
(assert (< 97 (+ n_VAR 1)))
(assert (< 98 (+ n_VAR 1)))
(assert (< 99 (+ n_VAR 1)))
(assert (< 100 (+ n_VAR 1)))
(assert (< 101 (+ n_VAR 1)))
(assert (< 102 (+ n_VAR 1)))
(assert (< 103 (+ n_VAR 1)))
(assert (< 104 (+ n_VAR 1)))
(check-sat)
(get-value (n_VAR))
